(set-logic QF_LRA)
(declare-fun T1 () Real )
(declare-fun T2 () Real )
(declare-fun T3 () Real )
(declare-fun T4 () Real )
(declare-fun T5 () Real )
(declare-fun T6 () Real )
(declare-fun T7 () Real )
(declare-fun T8 () Real )
(declare-fun Z () Real )
(declare-fun k () Real )
(assert (let
(( $goal (>= Z k) ))
(let
((
$phi ( and 
(or ( <= ( + T1 95 ) T2 ) ( <= ( + T2 26 ) T1 ) )
(or ( <= ( + T1 108 )  ( + T2 26 ) ) ( <= ( + T2 37 )( + T1 95 ) ) )
(or ( <= ( + T1 184 )  ( + T2 37 ) ) ( <= ( + T2 121 )( + T1 108 ) ) )
(or ( <= ( + T1 283 )  ( + T2 121 ) ) ( <= ( + T2 138 )( + T1 184 ) ) )
(or ( <= ( + T1 308 )  ( + T2 138 ) ) ( <= ( + T2 228 )( + T1 283 ) ) )
(or ( <= ( + T1 389 )  ( + T2 228 ) ) ( <= ( + T2 229 )( + T1 308 ) ) )
(or ( <= ( + T1 474 )  ( + T2 229 ) ) ( <= ( + T2 250 )( + T1 389 ) ) )
(or ( <= ( + T1 556 )  ( + T2 250 ) ) ( <= ( + T2 280 )( + T1 474 ) ) )
(or ( <= ( + T1 585 )  ( + T2 280 ) ) ( <= ( + T2 299 )( + T1 556 ) ) )
(or ( <= ( + T1 632 )  ( + T2 299 ) ) ( <= ( + T2 323 )( + T1 585 ) ) )
(or ( <= ( + T1 95 ) T3 ) ( <= ( + T3 80 ) T1 ) )
(or ( <= ( + T1 108 )  ( + T3 80 ) ) ( <= ( + T3 133 )( + T1 95 ) ) )
(or ( <= ( + T1 184 )  ( + T3 133 ) ) ( <= ( + T3 177 )( + T1 108 ) ) )
(or ( <= ( + T1 283 )  ( + T3 177 ) ) ( <= ( + T3 230 )( + T1 184 ) ) )
(or ( <= ( + T1 308 )  ( + T3 230 ) ) ( <= ( + T3 265 )( + T1 283 ) ) )
(or ( <= ( + T1 389 )  ( + T3 265 ) ) ( <= ( + T3 278 )( + T1 308 ) ) )
(or ( <= ( + T1 474 )  ( + T3 278 ) ) ( <= ( + T3 335 )( + T1 389 ) ) )
(or ( <= ( + T1 556 )  ( + T3 335 ) ) ( <= ( + T3 432 )( + T1 474 ) ) )
(or ( <= ( + T1 585 )  ( + T3 432 ) ) ( <= ( + T3 476 )( + T1 556 ) ) )
(or ( <= ( + T1 632 )  ( + T3 476 ) ) ( <= ( + T3 548 )( + T1 585 ) ) )
(or ( <= ( + T1 95 ) T4 ) ( <= ( + T4 8 ) T1 ) )
(or ( <= ( + T1 108 )  ( + T4 8 ) ) ( <= ( + T4 46 )( + T1 95 ) ) )
(or ( <= ( + T1 184 )  ( + T4 46 ) ) ( <= ( + T4 82 )( + T1 108 ) ) )
(or ( <= ( + T1 283 )  ( + T4 82 ) ) ( <= ( + T4 118 )( + T1 184 ) ) )
(or ( <= ( + T1 308 )  ( + T4 118 ) ) ( <= ( + T4 206 )( + T1 283 ) ) )
(or ( <= ( + T1 389 )  ( + T4 206 ) ) ( <= ( + T4 266 )( + T1 308 ) ) )
(or ( <= ( + T1 474 )  ( + T4 266 ) ) ( <= ( + T4 282 )( + T1 389 ) ) )
(or ( <= ( + T1 556 )  ( + T4 282 ) ) ( <= ( + T4 354 )( + T1 474 ) ) )
(or ( <= ( + T1 585 )  ( + T4 354 ) ) ( <= ( + T4 448 )( + T1 556 ) ) )
(or ( <= ( + T1 632 )  ( + T4 448 ) ) ( <= ( + T4 545 )( + T1 585 ) ) )
(or ( <= ( + T1 95 ) T5 ) ( <= ( + T5 18 ) T1 ) )
(or ( <= ( + T1 108 )  ( + T5 18 ) ) ( <= ( + T5 37 )( + T1 95 ) ) )
(or ( <= ( + T1 184 )  ( + T5 37 ) ) ( <= ( + T5 44 )( + T1 108 ) ) )
(or ( <= ( + T1 283 )  ( + T5 44 ) ) ( <= ( + T5 98 )( + T1 184 ) ) )
(or ( <= ( + T1 308 )  ( + T5 98 ) ) ( <= ( + T5 186 )( + T1 283 ) ) )
(or ( <= ( + T1 389 )  ( + T5 186 ) ) ( <= ( + T5 234 )( + T1 308 ) ) )
(or ( <= ( + T1 474 )  ( + T5 234 ) ) ( <= ( + T5 240 )( + T1 389 ) ) )
(or ( <= ( + T1 556 )  ( + T5 240 ) ) ( <= ( + T5 300 )( + T1 474 ) ) )
(or ( <= ( + T1 585 )  ( + T5 300 ) ) ( <= ( + T5 378 )( + T1 556 ) ) )
(or ( <= ( + T1 632 )  ( + T5 378 ) ) ( <= ( + T5 455 )( + T1 585 ) ) )
(or ( <= ( + T1 95 ) T6 ) ( <= ( + T6 35 ) T1 ) )
(or ( <= ( + T1 108 )  ( + T6 35 ) ) ( <= ( + T6 44 )( + T1 95 ) ) )
(or ( <= ( + T1 184 )  ( + T6 44 ) ) ( <= ( + T6 73 )( + T1 108 ) ) )
(or ( <= ( + T1 283 )  ( + T6 73 ) ) ( <= ( + T6 152 )( + T1 184 ) ) )
(or ( <= ( + T1 308 )  ( + T6 152 ) ) ( <= ( + T6 165 )( + T1 283 ) ) )
(or ( <= ( + T1 389 )  ( + T6 165 ) ) ( <= ( + T6 180 )( + T1 308 ) ) )
(or ( <= ( + T1 474 )  ( + T6 180 ) ) ( <= ( + T6 271 )( + T1 389 ) ) )
(or ( <= ( + T1 556 )  ( + T6 271 ) ) ( <= ( + T6 292 )( + T1 474 ) ) )
(or ( <= ( + T1 585 )  ( + T6 292 ) ) ( <= ( + T6 304 )( + T1 556 ) ) )
(or ( <= ( + T1 632 )  ( + T6 304 ) ) ( <= ( + T6 390 )( + T1 585 ) ) )
(or ( <= ( + T1 95 ) T7 ) ( <= ( + T7 44 ) T1 ) )
(or ( <= ( + T1 108 )  ( + T7 44 ) ) ( <= ( + T7 115 )( + T1 95 ) ) )
(or ( <= ( + T1 184 )  ( + T7 115 ) ) ( <= ( + T7 139 )( + T1 108 ) ) )
(or ( <= ( + T1 283 )  ( + T7 139 ) ) ( <= ( + T7 218 )( + T1 184 ) ) )
(or ( <= ( + T1 308 )  ( + T7 218 ) ) ( <= ( + T7 224 )( + T1 283 ) ) )
(or ( <= ( + T1 389 )  ( + T7 224 ) ) ( <= ( + T7 235 )( + T1 308 ) ) )
(or ( <= ( + T1 474 )  ( + T7 235 ) ) ( <= ( + T7 325 )( + T1 389 ) ) )
(or ( <= ( + T1 556 )  ( + T7 325 ) ) ( <= ( + T7 399 )( + T1 474 ) ) )
(or ( <= ( + T1 585 )  ( + T7 399 ) ) ( <= ( + T7 434 )( + T1 556 ) ) )
(or ( <= ( + T1 632 )  ( + T7 434 ) ) ( <= ( + T7 517 )( + T1 585 ) ) )
(or ( <= ( + T1 95 ) T8 ) ( <= ( + T8 22 ) T1 ) )
(or ( <= ( + T1 108 )  ( + T8 22 ) ) ( <= ( + T8 26 )( + T1 95 ) ) )
(or ( <= ( + T1 184 )  ( + T8 26 ) ) ( <= ( + T8 28 )( + T1 108 ) ) )
(or ( <= ( + T1 283 )  ( + T8 28 ) ) ( <= ( + T8 56 )( + T1 184 ) ) )
(or ( <= ( + T1 308 )  ( + T8 56 ) ) ( <= ( + T8 113 )( + T1 283 ) ) )
(or ( <= ( + T1 389 )  ( + T8 113 ) ) ( <= ( + T8 154 )( + T1 308 ) ) )
(or ( <= ( + T1 474 )  ( + T8 154 ) ) ( <= ( + T8 181 )( + T1 389 ) ) )
(or ( <= ( + T1 556 )  ( + T8 181 ) ) ( <= ( + T8 244 )( + T1 474 ) ) )
(or ( <= ( + T1 585 )  ( + T8 244 ) ) ( <= ( + T8 344 )( + T1 556 ) ) )
(or ( <= ( + T1 632 )  ( + T8 344 ) ) ( <= ( + T8 348 )( + T1 585 ) ) )
(or ( <= ( + T2 26 ) T3 ) ( <= ( + T3 80 ) T2 ) )
(or ( <= ( + T2 37 )  ( + T3 80 ) ) ( <= ( + T3 133 )( + T2 26 ) ) )
(or ( <= ( + T2 121 )  ( + T3 133 ) ) ( <= ( + T3 177 )( + T2 37 ) ) )
(or ( <= ( + T2 138 )  ( + T3 177 ) ) ( <= ( + T3 230 )( + T2 121 ) ) )
(or ( <= ( + T2 228 )  ( + T3 230 ) ) ( <= ( + T3 265 )( + T2 138 ) ) )
(or ( <= ( + T2 229 )  ( + T3 265 ) ) ( <= ( + T3 278 )( + T2 228 ) ) )
(or ( <= ( + T2 250 )  ( + T3 278 ) ) ( <= ( + T3 335 )( + T2 229 ) ) )
(or ( <= ( + T2 280 )  ( + T3 335 ) ) ( <= ( + T3 432 )( + T2 250 ) ) )
(or ( <= ( + T2 299 )  ( + T3 432 ) ) ( <= ( + T3 476 )( + T2 280 ) ) )
(or ( <= ( + T2 323 )  ( + T3 476 ) ) ( <= ( + T3 548 )( + T2 299 ) ) )
(or ( <= ( + T2 26 ) T4 ) ( <= ( + T4 8 ) T2 ) )
(or ( <= ( + T2 37 )  ( + T4 8 ) ) ( <= ( + T4 46 )( + T2 26 ) ) )
(or ( <= ( + T2 121 )  ( + T4 46 ) ) ( <= ( + T4 82 )( + T2 37 ) ) )
(or ( <= ( + T2 138 )  ( + T4 82 ) ) ( <= ( + T4 118 )( + T2 121 ) ) )
(or ( <= ( + T2 228 )  ( + T4 118 ) ) ( <= ( + T4 206 )( + T2 138 ) ) )
(or ( <= ( + T2 229 )  ( + T4 206 ) ) ( <= ( + T4 266 )( + T2 228 ) ) )
(or ( <= ( + T2 250 )  ( + T4 266 ) ) ( <= ( + T4 282 )( + T2 229 ) ) )
(or ( <= ( + T2 280 )  ( + T4 282 ) ) ( <= ( + T4 354 )( + T2 250 ) ) )
(or ( <= ( + T2 299 )  ( + T4 354 ) ) ( <= ( + T4 448 )( + T2 280 ) ) )
(or ( <= ( + T2 323 )  ( + T4 448 ) ) ( <= ( + T4 545 )( + T2 299 ) ) )
(or ( <= ( + T2 26 ) T5 ) ( <= ( + T5 18 ) T2 ) )
(or ( <= ( + T2 37 )  ( + T5 18 ) ) ( <= ( + T5 37 )( + T2 26 ) ) )
(or ( <= ( + T2 121 )  ( + T5 37 ) ) ( <= ( + T5 44 )( + T2 37 ) ) )
(or ( <= ( + T2 138 )  ( + T5 44 ) ) ( <= ( + T5 98 )( + T2 121 ) ) )
(or ( <= ( + T2 228 )  ( + T5 98 ) ) ( <= ( + T5 186 )( + T2 138 ) ) )
(or ( <= ( + T2 229 )  ( + T5 186 ) ) ( <= ( + T5 234 )( + T2 228 ) ) )
(or ( <= ( + T2 250 )  ( + T5 234 ) ) ( <= ( + T5 240 )( + T2 229 ) ) )
(or ( <= ( + T2 280 )  ( + T5 240 ) ) ( <= ( + T5 300 )( + T2 250 ) ) )
(or ( <= ( + T2 299 )  ( + T5 300 ) ) ( <= ( + T5 378 )( + T2 280 ) ) )
(or ( <= ( + T2 323 )  ( + T5 378 ) ) ( <= ( + T5 455 )( + T2 299 ) ) )
(or ( <= ( + T2 26 ) T6 ) ( <= ( + T6 35 ) T2 ) )
(or ( <= ( + T2 37 )  ( + T6 35 ) ) ( <= ( + T6 44 )( + T2 26 ) ) )
(or ( <= ( + T2 121 )  ( + T6 44 ) ) ( <= ( + T6 73 )( + T2 37 ) ) )
(or ( <= ( + T2 138 )  ( + T6 73 ) ) ( <= ( + T6 152 )( + T2 121 ) ) )
(or ( <= ( + T2 228 )  ( + T6 152 ) ) ( <= ( + T6 165 )( + T2 138 ) ) )
(or ( <= ( + T2 229 )  ( + T6 165 ) ) ( <= ( + T6 180 )( + T2 228 ) ) )
(or ( <= ( + T2 250 )  ( + T6 180 ) ) ( <= ( + T6 271 )( + T2 229 ) ) )
(or ( <= ( + T2 280 )  ( + T6 271 ) ) ( <= ( + T6 292 )( + T2 250 ) ) )
(or ( <= ( + T2 299 )  ( + T6 292 ) ) ( <= ( + T6 304 )( + T2 280 ) ) )
(or ( <= ( + T2 323 )  ( + T6 304 ) ) ( <= ( + T6 390 )( + T2 299 ) ) )
(or ( <= ( + T2 26 ) T7 ) ( <= ( + T7 44 ) T2 ) )
(or ( <= ( + T2 37 )  ( + T7 44 ) ) ( <= ( + T7 115 )( + T2 26 ) ) )
(or ( <= ( + T2 121 )  ( + T7 115 ) ) ( <= ( + T7 139 )( + T2 37 ) ) )
(or ( <= ( + T2 138 )  ( + T7 139 ) ) ( <= ( + T7 218 )( + T2 121 ) ) )
(or ( <= ( + T2 228 )  ( + T7 218 ) ) ( <= ( + T7 224 )( + T2 138 ) ) )
(or ( <= ( + T2 229 )  ( + T7 224 ) ) ( <= ( + T7 235 )( + T2 228 ) ) )
(or ( <= ( + T2 250 )  ( + T7 235 ) ) ( <= ( + T7 325 )( + T2 229 ) ) )
(or ( <= ( + T2 280 )  ( + T7 325 ) ) ( <= ( + T7 399 )( + T2 250 ) ) )
(or ( <= ( + T2 299 )  ( + T7 399 ) ) ( <= ( + T7 434 )( + T2 280 ) ) )
(or ( <= ( + T2 323 )  ( + T7 434 ) ) ( <= ( + T7 517 )( + T2 299 ) ) )
(or ( <= ( + T2 26 ) T8 ) ( <= ( + T8 22 ) T2 ) )
(or ( <= ( + T2 37 )  ( + T8 22 ) ) ( <= ( + T8 26 )( + T2 26 ) ) )
(or ( <= ( + T2 121 )  ( + T8 26 ) ) ( <= ( + T8 28 )( + T2 37 ) ) )
(or ( <= ( + T2 138 )  ( + T8 28 ) ) ( <= ( + T8 56 )( + T2 121 ) ) )
(or ( <= ( + T2 228 )  ( + T8 56 ) ) ( <= ( + T8 113 )( + T2 138 ) ) )
(or ( <= ( + T2 229 )  ( + T8 113 ) ) ( <= ( + T8 154 )( + T2 228 ) ) )
(or ( <= ( + T2 250 )  ( + T8 154 ) ) ( <= ( + T8 181 )( + T2 229 ) ) )
(or ( <= ( + T2 280 )  ( + T8 181 ) ) ( <= ( + T8 244 )( + T2 250 ) ) )
(or ( <= ( + T2 299 )  ( + T8 244 ) ) ( <= ( + T8 344 )( + T2 280 ) ) )
(or ( <= ( + T2 323 )  ( + T8 344 ) ) ( <= ( + T8 348 )( + T2 299 ) ) )
(or ( <= ( + T3 80 ) T4 ) ( <= ( + T4 8 ) T3 ) )
(or ( <= ( + T3 133 )  ( + T4 8 ) ) ( <= ( + T4 46 )( + T3 80 ) ) )
(or ( <= ( + T3 177 )  ( + T4 46 ) ) ( <= ( + T4 82 )( + T3 133 ) ) )
(or ( <= ( + T3 230 )  ( + T4 82 ) ) ( <= ( + T4 118 )( + T3 177 ) ) )
(or ( <= ( + T3 265 )  ( + T4 118 ) ) ( <= ( + T4 206 )( + T3 230 ) ) )
(or ( <= ( + T3 278 )  ( + T4 206 ) ) ( <= ( + T4 266 )( + T3 265 ) ) )
(or ( <= ( + T3 335 )  ( + T4 266 ) ) ( <= ( + T4 282 )( + T3 278 ) ) )
(or ( <= ( + T3 432 )  ( + T4 282 ) ) ( <= ( + T4 354 )( + T3 335 ) ) )
(or ( <= ( + T3 476 )  ( + T4 354 ) ) ( <= ( + T4 448 )( + T3 432 ) ) )
(or ( <= ( + T3 548 )  ( + T4 448 ) ) ( <= ( + T4 545 )( + T3 476 ) ) )
(or ( <= ( + T3 80 ) T5 ) ( <= ( + T5 18 ) T3 ) )
(or ( <= ( + T3 133 )  ( + T5 18 ) ) ( <= ( + T5 37 )( + T3 80 ) ) )
(or ( <= ( + T3 177 )  ( + T5 37 ) ) ( <= ( + T5 44 )( + T3 133 ) ) )
(or ( <= ( + T3 230 )  ( + T5 44 ) ) ( <= ( + T5 98 )( + T3 177 ) ) )
(or ( <= ( + T3 265 )  ( + T5 98 ) ) ( <= ( + T5 186 )( + T3 230 ) ) )
(or ( <= ( + T3 278 )  ( + T5 186 ) ) ( <= ( + T5 234 )( + T3 265 ) ) )
(or ( <= ( + T3 335 )  ( + T5 234 ) ) ( <= ( + T5 240 )( + T3 278 ) ) )
(or ( <= ( + T3 432 )  ( + T5 240 ) ) ( <= ( + T5 300 )( + T3 335 ) ) )
(or ( <= ( + T3 476 )  ( + T5 300 ) ) ( <= ( + T5 378 )( + T3 432 ) ) )
(or ( <= ( + T3 548 )  ( + T5 378 ) ) ( <= ( + T5 455 )( + T3 476 ) ) )
(or ( <= ( + T3 80 ) T6 ) ( <= ( + T6 35 ) T3 ) )
(or ( <= ( + T3 133 )  ( + T6 35 ) ) ( <= ( + T6 44 )( + T3 80 ) ) )
(or ( <= ( + T3 177 )  ( + T6 44 ) ) ( <= ( + T6 73 )( + T3 133 ) ) )
(or ( <= ( + T3 230 )  ( + T6 73 ) ) ( <= ( + T6 152 )( + T3 177 ) ) )
(or ( <= ( + T3 265 )  ( + T6 152 ) ) ( <= ( + T6 165 )( + T3 230 ) ) )
(or ( <= ( + T3 278 )  ( + T6 165 ) ) ( <= ( + T6 180 )( + T3 265 ) ) )
(or ( <= ( + T3 335 )  ( + T6 180 ) ) ( <= ( + T6 271 )( + T3 278 ) ) )
(or ( <= ( + T3 432 )  ( + T6 271 ) ) ( <= ( + T6 292 )( + T3 335 ) ) )
(or ( <= ( + T3 476 )  ( + T6 292 ) ) ( <= ( + T6 304 )( + T3 432 ) ) )
(or ( <= ( + T3 548 )  ( + T6 304 ) ) ( <= ( + T6 390 )( + T3 476 ) ) )
(or ( <= ( + T3 80 ) T7 ) ( <= ( + T7 44 ) T3 ) )
(or ( <= ( + T3 133 )  ( + T7 44 ) ) ( <= ( + T7 115 )( + T3 80 ) ) )
(or ( <= ( + T3 177 )  ( + T7 115 ) ) ( <= ( + T7 139 )( + T3 133 ) ) )
(or ( <= ( + T3 230 )  ( + T7 139 ) ) ( <= ( + T7 218 )( + T3 177 ) ) )
(or ( <= ( + T3 265 )  ( + T7 218 ) ) ( <= ( + T7 224 )( + T3 230 ) ) )
(or ( <= ( + T3 278 )  ( + T7 224 ) ) ( <= ( + T7 235 )( + T3 265 ) ) )
(or ( <= ( + T3 335 )  ( + T7 235 ) ) ( <= ( + T7 325 )( + T3 278 ) ) )
(or ( <= ( + T3 432 )  ( + T7 325 ) ) ( <= ( + T7 399 )( + T3 335 ) ) )
(or ( <= ( + T3 476 )  ( + T7 399 ) ) ( <= ( + T7 434 )( + T3 432 ) ) )
(or ( <= ( + T3 548 )  ( + T7 434 ) ) ( <= ( + T7 517 )( + T3 476 ) ) )
(or ( <= ( + T3 80 ) T8 ) ( <= ( + T8 22 ) T3 ) )
(or ( <= ( + T3 133 )  ( + T8 22 ) ) ( <= ( + T8 26 )( + T3 80 ) ) )
(or ( <= ( + T3 177 )  ( + T8 26 ) ) ( <= ( + T8 28 )( + T3 133 ) ) )
(or ( <= ( + T3 230 )  ( + T8 28 ) ) ( <= ( + T8 56 )( + T3 177 ) ) )
(or ( <= ( + T3 265 )  ( + T8 56 ) ) ( <= ( + T8 113 )( + T3 230 ) ) )
(or ( <= ( + T3 278 )  ( + T8 113 ) ) ( <= ( + T8 154 )( + T3 265 ) ) )
(or ( <= ( + T3 335 )  ( + T8 154 ) ) ( <= ( + T8 181 )( + T3 278 ) ) )
(or ( <= ( + T3 432 )  ( + T8 181 ) ) ( <= ( + T8 244 )( + T3 335 ) ) )
(or ( <= ( + T3 476 )  ( + T8 244 ) ) ( <= ( + T8 344 )( + T3 432 ) ) )
(or ( <= ( + T3 548 )  ( + T8 344 ) ) ( <= ( + T8 348 )( + T3 476 ) ) )
(or ( <= ( + T4 8 ) T5 ) ( <= ( + T5 18 ) T4 ) )
(or ( <= ( + T4 46 )  ( + T5 18 ) ) ( <= ( + T5 37 )( + T4 8 ) ) )
(or ( <= ( + T4 82 )  ( + T5 37 ) ) ( <= ( + T5 44 )( + T4 46 ) ) )
(or ( <= ( + T4 118 )  ( + T5 44 ) ) ( <= ( + T5 98 )( + T4 82 ) ) )
(or ( <= ( + T4 206 )  ( + T5 98 ) ) ( <= ( + T5 186 )( + T4 118 ) ) )
(or ( <= ( + T4 266 )  ( + T5 186 ) ) ( <= ( + T5 234 )( + T4 206 ) ) )
(or ( <= ( + T4 282 )  ( + T5 234 ) ) ( <= ( + T5 240 )( + T4 266 ) ) )
(or ( <= ( + T4 354 )  ( + T5 240 ) ) ( <= ( + T5 300 )( + T4 282 ) ) )
(or ( <= ( + T4 448 )  ( + T5 300 ) ) ( <= ( + T5 378 )( + T4 354 ) ) )
(or ( <= ( + T4 545 )  ( + T5 378 ) ) ( <= ( + T5 455 )( + T4 448 ) ) )
(or ( <= ( + T4 8 ) T6 ) ( <= ( + T6 35 ) T4 ) )
(or ( <= ( + T4 46 )  ( + T6 35 ) ) ( <= ( + T6 44 )( + T4 8 ) ) )
(or ( <= ( + T4 82 )  ( + T6 44 ) ) ( <= ( + T6 73 )( + T4 46 ) ) )
(or ( <= ( + T4 118 )  ( + T6 73 ) ) ( <= ( + T6 152 )( + T4 82 ) ) )
(or ( <= ( + T4 206 )  ( + T6 152 ) ) ( <= ( + T6 165 )( + T4 118 ) ) )
(or ( <= ( + T4 266 )  ( + T6 165 ) ) ( <= ( + T6 180 )( + T4 206 ) ) )
(or ( <= ( + T4 282 )  ( + T6 180 ) ) ( <= ( + T6 271 )( + T4 266 ) ) )
(or ( <= ( + T4 354 )  ( + T6 271 ) ) ( <= ( + T6 292 )( + T4 282 ) ) )
(or ( <= ( + T4 448 )  ( + T6 292 ) ) ( <= ( + T6 304 )( + T4 354 ) ) )
(or ( <= ( + T4 545 )  ( + T6 304 ) ) ( <= ( + T6 390 )( + T4 448 ) ) )
(or ( <= ( + T4 8 ) T7 ) ( <= ( + T7 44 ) T4 ) )
(or ( <= ( + T4 46 )  ( + T7 44 ) ) ( <= ( + T7 115 )( + T4 8 ) ) )
(or ( <= ( + T4 82 )  ( + T7 115 ) ) ( <= ( + T7 139 )( + T4 46 ) ) )
(or ( <= ( + T4 118 )  ( + T7 139 ) ) ( <= ( + T7 218 )( + T4 82 ) ) )
(or ( <= ( + T4 206 )  ( + T7 218 ) ) ( <= ( + T7 224 )( + T4 118 ) ) )
(or ( <= ( + T4 266 )  ( + T7 224 ) ) ( <= ( + T7 235 )( + T4 206 ) ) )
(or ( <= ( + T4 282 )  ( + T7 235 ) ) ( <= ( + T7 325 )( + T4 266 ) ) )
(or ( <= ( + T4 354 )  ( + T7 325 ) ) ( <= ( + T7 399 )( + T4 282 ) ) )
(or ( <= ( + T4 448 )  ( + T7 399 ) ) ( <= ( + T7 434 )( + T4 354 ) ) )
(or ( <= ( + T4 545 )  ( + T7 434 ) ) ( <= ( + T7 517 )( + T4 448 ) ) )
(or ( <= ( + T4 8 ) T8 ) ( <= ( + T8 22 ) T4 ) )
(or ( <= ( + T4 46 )  ( + T8 22 ) ) ( <= ( + T8 26 )( + T4 8 ) ) )
(or ( <= ( + T4 82 )  ( + T8 26 ) ) ( <= ( + T8 28 )( + T4 46 ) ) )
(or ( <= ( + T4 118 )  ( + T8 28 ) ) ( <= ( + T8 56 )( + T4 82 ) ) )
(or ( <= ( + T4 206 )  ( + T8 56 ) ) ( <= ( + T8 113 )( + T4 118 ) ) )
(or ( <= ( + T4 266 )  ( + T8 113 ) ) ( <= ( + T8 154 )( + T4 206 ) ) )
(or ( <= ( + T4 282 )  ( + T8 154 ) ) ( <= ( + T8 181 )( + T4 266 ) ) )
(or ( <= ( + T4 354 )  ( + T8 181 ) ) ( <= ( + T8 244 )( + T4 282 ) ) )
(or ( <= ( + T4 448 )  ( + T8 244 ) ) ( <= ( + T8 344 )( + T4 354 ) ) )
(or ( <= ( + T4 545 )  ( + T8 344 ) ) ( <= ( + T8 348 )( + T4 448 ) ) )
(or ( <= ( + T5 18 ) T6 ) ( <= ( + T6 35 ) T5 ) )
(or ( <= ( + T5 37 )  ( + T6 35 ) ) ( <= ( + T6 44 )( + T5 18 ) ) )
(or ( <= ( + T5 44 )  ( + T6 44 ) ) ( <= ( + T6 73 )( + T5 37 ) ) )
(or ( <= ( + T5 98 )  ( + T6 73 ) ) ( <= ( + T6 152 )( + T5 44 ) ) )
(or ( <= ( + T5 186 )  ( + T6 152 ) ) ( <= ( + T6 165 )( + T5 98 ) ) )
(or ( <= ( + T5 234 )  ( + T6 165 ) ) ( <= ( + T6 180 )( + T5 186 ) ) )
(or ( <= ( + T5 240 )  ( + T6 180 ) ) ( <= ( + T6 271 )( + T5 234 ) ) )
(or ( <= ( + T5 300 )  ( + T6 271 ) ) ( <= ( + T6 292 )( + T5 240 ) ) )
(or ( <= ( + T5 378 )  ( + T6 292 ) ) ( <= ( + T6 304 )( + T5 300 ) ) )
(or ( <= ( + T5 455 )  ( + T6 304 ) ) ( <= ( + T6 390 )( + T5 378 ) ) )
(or ( <= ( + T5 18 ) T7 ) ( <= ( + T7 44 ) T5 ) )
(or ( <= ( + T5 37 )  ( + T7 44 ) ) ( <= ( + T7 115 )( + T5 18 ) ) )
(or ( <= ( + T5 44 )  ( + T7 115 ) ) ( <= ( + T7 139 )( + T5 37 ) ) )
(or ( <= ( + T5 98 )  ( + T7 139 ) ) ( <= ( + T7 218 )( + T5 44 ) ) )
(or ( <= ( + T5 186 )  ( + T7 218 ) ) ( <= ( + T7 224 )( + T5 98 ) ) )
(or ( <= ( + T5 234 )  ( + T7 224 ) ) ( <= ( + T7 235 )( + T5 186 ) ) )
(or ( <= ( + T5 240 )  ( + T7 235 ) ) ( <= ( + T7 325 )( + T5 234 ) ) )
(or ( <= ( + T5 300 )  ( + T7 325 ) ) ( <= ( + T7 399 )( + T5 240 ) ) )
(or ( <= ( + T5 378 )  ( + T7 399 ) ) ( <= ( + T7 434 )( + T5 300 ) ) )
(or ( <= ( + T5 455 )  ( + T7 434 ) ) ( <= ( + T7 517 )( + T5 378 ) ) )
(or ( <= ( + T5 18 ) T8 ) ( <= ( + T8 22 ) T5 ) )
(or ( <= ( + T5 37 )  ( + T8 22 ) ) ( <= ( + T8 26 )( + T5 18 ) ) )
(or ( <= ( + T5 44 )  ( + T8 26 ) ) ( <= ( + T8 28 )( + T5 37 ) ) )
(or ( <= ( + T5 98 )  ( + T8 28 ) ) ( <= ( + T8 56 )( + T5 44 ) ) )
(or ( <= ( + T5 186 )  ( + T8 56 ) ) ( <= ( + T8 113 )( + T5 98 ) ) )
(or ( <= ( + T5 234 )  ( + T8 113 ) ) ( <= ( + T8 154 )( + T5 186 ) ) )
(or ( <= ( + T5 240 )  ( + T8 154 ) ) ( <= ( + T8 181 )( + T5 234 ) ) )
(or ( <= ( + T5 300 )  ( + T8 181 ) ) ( <= ( + T8 244 )( + T5 240 ) ) )
(or ( <= ( + T5 378 )  ( + T8 244 ) ) ( <= ( + T8 344 )( + T5 300 ) ) )
(or ( <= ( + T5 455 )  ( + T8 344 ) ) ( <= ( + T8 348 )( + T5 378 ) ) )
(or ( <= ( + T6 35 ) T7 ) ( <= ( + T7 44 ) T6 ) )
(or ( <= ( + T6 44 )  ( + T7 44 ) ) ( <= ( + T7 115 )( + T6 35 ) ) )
(or ( <= ( + T6 73 )  ( + T7 115 ) ) ( <= ( + T7 139 )( + T6 44 ) ) )
(or ( <= ( + T6 152 )  ( + T7 139 ) ) ( <= ( + T7 218 )( + T6 73 ) ) )
(or ( <= ( + T6 165 )  ( + T7 218 ) ) ( <= ( + T7 224 )( + T6 152 ) ) )
(or ( <= ( + T6 180 )  ( + T7 224 ) ) ( <= ( + T7 235 )( + T6 165 ) ) )
(or ( <= ( + T6 271 )  ( + T7 235 ) ) ( <= ( + T7 325 )( + T6 180 ) ) )
(or ( <= ( + T6 292 )  ( + T7 325 ) ) ( <= ( + T7 399 )( + T6 271 ) ) )
(or ( <= ( + T6 304 )  ( + T7 399 ) ) ( <= ( + T7 434 )( + T6 292 ) ) )
(or ( <= ( + T6 390 )  ( + T7 434 ) ) ( <= ( + T7 517 )( + T6 304 ) ) )
(or ( <= ( + T6 35 ) T8 ) ( <= ( + T8 22 ) T6 ) )
(or ( <= ( + T6 44 )  ( + T8 22 ) ) ( <= ( + T8 26 )( + T6 35 ) ) )
(or ( <= ( + T6 73 )  ( + T8 26 ) ) ( <= ( + T8 28 )( + T6 44 ) ) )
(or ( <= ( + T6 152 )  ( + T8 28 ) ) ( <= ( + T8 56 )( + T6 73 ) ) )
(or ( <= ( + T6 165 )  ( + T8 56 ) ) ( <= ( + T8 113 )( + T6 152 ) ) )
(or ( <= ( + T6 180 )  ( + T8 113 ) ) ( <= ( + T8 154 )( + T6 165 ) ) )
(or ( <= ( + T6 271 )  ( + T8 154 ) ) ( <= ( + T8 181 )( + T6 180 ) ) )
(or ( <= ( + T6 292 )  ( + T8 181 ) ) ( <= ( + T8 244 )( + T6 271 ) ) )
(or ( <= ( + T6 304 )  ( + T8 244 ) ) ( <= ( + T8 344 )( + T6 292 ) ) )
(or ( <= ( + T6 390 )  ( + T8 344 ) ) ( <= ( + T8 348 )( + T6 304 ) ) )
(or ( <= ( + T7 44 ) T8 ) ( <= ( + T8 22 ) T7 ) )
(or ( <= ( + T7 115 )  ( + T8 22 ) ) ( <= ( + T8 26 )( + T7 44 ) ) )
(or ( <= ( + T7 139 )  ( + T8 26 ) ) ( <= ( + T8 28 )( + T7 115 ) ) )
(or ( <= ( + T7 218 )  ( + T8 28 ) ) ( <= ( + T8 56 )( + T7 139 ) ) )
(or ( <= ( + T7 224 )  ( + T8 56 ) ) ( <= ( + T8 113 )( + T7 218 ) ) )
(or ( <= ( + T7 235 )  ( + T8 113 ) ) ( <= ( + T8 154 )( + T7 224 ) ) )
(or ( <= ( + T7 325 )  ( + T8 154 ) ) ( <= ( + T8 181 )( + T7 235 ) ) )
(or ( <= ( + T7 399 )  ( + T8 181 ) ) ( <= ( + T8 244 )( + T7 325 ) ) )
(or ( <= ( + T7 434 )  ( + T8 244 ) ) ( <= ( + T8 344 )( + T7 399 ) ) )
(or ( <= ( + T7 517 )  ( + T8 344 ) ) ( <= ( + T8 348 )( + T7 434 ) ) )
( <= ( + T1 632 ) Z)
( <= ( + T2 323 ) Z)
( <= ( + T3 548 ) Z)
( <= ( + T4 545 ) Z)
( <= ( + T5 455 ) Z)
( <= ( + T6 390 ) Z)
( <= ( + T7 517 ) Z)
( <= ( + T8 348 ) Z)
( >= T1 0 )
( >= T2 0 )
( >= T3 0 )
( >= T4 0 )
( >= T5 0 )
( >= T6 0 )
( >= T7 0 )
( >= T8 0 )
) )
)(=> $phi $goal))))